(declare-fun bvlambda_3_ () (_ BitVec 9))
(declare-fun bvlambda_21_ () (_ BitVec 4))
(declare-fun a114 () (Array (_ BitVec 1) (_ BitVec 6)))
(assert
(let (($e1 (_ bv0 1)))
(let (($e20 (_ bv46 11)))
(let (($e35 (_ bv0  6)))
(let (($e51 (_ bv0 5)))
(let (($e117 (concat $e20 bvlambda_21_)))
(let (($e121 (concat $e51  bvlambda_3_)))
(let (($e122 (concat $e121 $e1        )))
(let (($e123 (bvand (bvnot $e122) (bvnot $e117))))
(let (($e124 (   extract        $e123)))
(let (($e125 (store a114 $e1 $e35)))
(let (($e126 (select $e125 (bvnot $e124))))
                  (bvult $e35  $e126)
                                                                                                                                                                                                                                                                                                                                                                                                                                                                                                                                                                                                                                                                                                                                                                                                                                                                                                                                                                                                                                                                                                                                                                                                                         ))))))   )                                            )               )              )                  ))
